(set-info :origin "driver benchmark extracted from Microsoft SDV")
(set-logic HORN)
(declare-fun Proc30 (Int Int Int Int Int Bool Int Int) Bool)
(declare-fun Proc33 (Int Int Int Int Int Bool Int) Bool)
(declare-fun Proc18 (Int Int Int Int Int Bool Int Int Int) Bool)
(declare-fun Proc54 (Int Int Int Int Int Bool Int Int) Bool)
(declare-fun Proc49 (Int Int Int Int Int Bool Int Int) Bool)
(declare-fun Proc14 (Int Int Int Int Int Bool Int Int Int Int Int Int) Bool)
(declare-fun Proc56
             (Int Int Int Int Int Bool Int Bool Int Int Int Int Int)
             Bool)
(declare-fun Proc12 (Int Int Int Int Int Bool Int Int Int Int Int Int) Bool)
(declare-fun Proc40 (Int Int Int Int Int Bool Int) Bool)
(declare-fun Proc9 (Int Int Int Int Int Bool Int) Bool)
(declare-fun Proc27 (Int Int Int Int Int Bool) Bool)
(declare-fun Proc36 (Int Int Int Int Int Bool Int) Bool)
(declare-fun Proc52 (Int Int Int Int Int Bool) Bool)
(declare-fun Proc19 (Int Int Int Int Int Bool Int Int Int Int) Bool)
(declare-fun Proc23 (Int Int Int Int Int Bool Int Int Int Int) Bool)
(declare-fun Proc0 (Int Int Int Int Int Bool Int Int) Bool)
(declare-fun Proc29 (Int Int Int Int Int Bool Int Int) Bool)
(declare-fun Proc50 (Int Int Int Int Int Bool Int) Bool)
(declare-fun Proc7 (Int Int Int Int Int Bool Int Int Int) Bool)
(declare-fun Proc34 (Int Int Int Int Int Bool Int) Bool)
(declare-fun Proc42 (Int Int Int Int Int Bool Int) Bool)
(declare-fun Proc51 (Int Int Int Int Int Bool Int Int Int Int Int) Bool)
(declare-fun Proc26 (Int Int Int Int Int Bool Int Int Int Int) Bool)
(declare-fun Proc3 (Int Int Int Int Int Bool Int Int) Bool)
(declare-fun Proc8 (Int Int Int Int Int Bool Int Int) Bool)
(declare-fun Proc10 (Int Int Int Int Int Bool Int) Bool)
(declare-fun Proc39 (Int Int Int Int Int Bool Int) Bool)
(declare-fun Proc37 (Int Int Int Int Int Bool Int) Bool)
(declare-fun Proc53 (Int Int Int Int Int Bool) Bool)
(declare-fun Proc16 (Int Int Int Int Int Bool Int) Bool)
(declare-fun Proc35 (Int Int Int Int Int Bool Int) Bool)
(declare-fun Proc11 (Int Int Int Int Int Bool Int) Bool)
(declare-fun Proc6 (Int Int Int Int Int Bool Int) Bool)
(declare-fun Proc21 (Int Int Int Int Int Bool Int Int Int) Bool)
(declare-fun Proc4 (Int Int Int Int Int Bool Int Int Int) Bool)
(declare-fun Proc43 (Int Int Int Int Int Bool Int) Bool)
(declare-fun Proc31 (Int Int Int Int Int Bool Int Int) Bool)
(declare-fun Proc24 (Int Int Int Int Int Bool Int) Bool)
(declare-fun Proc2 (Int Int Int Int Int Bool) Bool)
(declare-fun Proc1 (Int Int Int Int Int Bool Int Int Int Int Int) Bool)
(declare-fun Proc44 (Int Int Int Int Int Bool Int) Bool)
(declare-fun Proc20 (Int Int Int Int Int Bool Int Int Int Int) Bool)
(declare-fun Proc5 (Int Int Int Int Int Bool Int Int) Bool)
(declare-fun Proc13 (Int Int Int Int Int Bool Int Int Int Int) Bool)
(declare-fun Proc32
             (Int Int Int Int Int Bool Int Int Int Int Bool Int Int)
             Bool)
(declare-fun Proc47 (Int Int Int Int Int Bool Int) Bool)
(declare-fun Proc15 (Int Int Int Int Int Bool Int Int Int Int) Bool)
(declare-fun Proc25 (Int Int Int Int Int Bool Int) Bool)
(declare-fun Proc41 (Int Int Int Int Int Bool Int) Bool)
(declare-fun Proc28 (Int Int Int Int Int Bool Int) Bool)
(declare-fun Proc55 (Int Int Int Int Int Bool) Bool)
(declare-fun Proc38 (Int Int Int Int Int Bool Int) Bool)
(declare-fun Proc46 (Int Int Int Int Int Bool Int Int) Bool)
(declare-fun Proc22 (Int Int Int Int Int Bool Int Int) Bool)
(declare-fun Proc48 (Int Int Int Int Int Bool) Bool)
(declare-fun Proc17 (Int Int Int Int Int Bool Int Int Int) Bool)
(declare-fun Proc45 (Int Int Int Int Int Bool Int) Bool)
(assert (forall ((A Int)
         (B Int)
         (C Int)
         (D Int)
         (E Int)
         (F Int)
         (G Int)
         (H Int)
         (I Int)
         (J Int)
         (K Int)
         (L Int)
         (M Int)
         (N Bool))
  (let ((a!1 (or (= M 0) (not (and (= C 0) (= B E))))))
  (let ((a!2 (and a!1 (not (and (= C 0) (= B E))))))
  (let ((a!3 (or (not (and (Proc0 K J I H G N L F) (= E F))) (= D 0) a!2)))
  (let ((a!4 (and a!3 (or (not (= E K)) (= D 0) a!2))))
    (=> (not (or (not N) (= M 0) (= L 0) a!4)) (Proc1 K J I H G N M L A C B))))))))
(assert (forall ((A Int)
         (B Int)
         (C Int)
         (D Int)
         (E Int)
         (F Int)
         (G Int)
         (H Int)
         (I Int)
         (J Int)
         (K Int)
         (L Int)
         (M Int)
         (N Bool)
         (O Int)
         (P Int)
         (Q Int)
         (R Int)
         (S Int)
         (T Int)
         (U Int)
         (V Int)
         (W Int)
         (X Int)
         (Y Int)
         (Z Int)
         (A1 Int)
         (B1 Int)
         (C1 Int)
         (D1 Int)
         (E1 Int)
         (F1 Int))
  (let ((a!1 (and (not (<= D1 (+ 112 F1))) (not (<= D1 E1))))
        (a!2 (not (and (not (= V 0))
                       (= U (+ 20 V))
                       (Proc4 D1 C1 B1 A1 Z N U X T))))
        (a!3 (or (<= 0 T)
                 (= X 0)
                 (not (Proc5 D1 C1 B1 A1 Z N X 0))
                 (not (and (= S D1) (= R T)))
                 (not (and (= Q R) (= P S)))))
        (a!4 (not (and (not (= V 0)) (Proc7 D1 C1 B1 A1 Z N O X M))))
        (a!6 (not (and (not (= V 0)) (= L (+ 20 V)) (Proc8 D1 C1 B1 A1 Z N L X))))
        (a!7 (not (and (not (= V 0)) (Proc7 D1 C1 B1 A1 Z N K X J))))
        (a!8 (not (and (not (= V 0)) (Proc9 D1 C1 B1 A1 Z N I))))
        (a!11 (not (Proc12 D1 C1 B1 A1 Z N X 115 0 1 1 1)))
        (a!12 (not (and (not (= V 0)) (Proc7 D1 C1 B1 A1 Z N H X G))))
        (a!21 (not (and (not (= V 0)) (Proc7 F C1 B1 A1 Z N E X D))))
        (a!22 (not (and (not (= D 259)) (= C D))))
        (a!23 (not (Proc5 F C1 B1 A1 Z N X 0)))
        (a!28 (not (and (not (= X 0)) (= C A)))))
  (let ((a!5 (or (= V 0)
                 (= X 0)
                 (not (Proc6 D1 C1 B1 A1 Z N X))
                 a!4
                 (not (and (= S D1) (= R M)))
                 (not (and (= Q R) (= P S)))))
        (a!9 (or a!6
                 (not (Proc6 D1 C1 B1 A1 Z N X))
                 (= V 0)
                 a!7
                 a!8
                 (not (Proc10 D1 C1 B1 A1 Z N Y))
                 (not (and (= S D1) (= R J)))
                 (not (and (= Q R) (= P S)))))
        (a!10 (or (= X 0)
                  (not (Proc6 D1 C1 B1 A1 Z N X))
                  (= V 0)
                  a!4
                  (not (and (= S D1) (= R M)))
                  (not (and (= Q R) (= P S)))))
        (a!13 (or (= Y 0)
                  (not (Proc11 D1 C1 B1 A1 Z N X))
                  a!11
                  (= V 0)
                  a!12
                  (not (and (= S D1) (= R G)))
                  (not (and (= Q R) (= P S)))))
        (a!14 (or (not (Proc11 D1 C1 B1 A1 Z N X))
                  a!11
                  (= V 0)
                  a!12
                  (not (and (= S D1) (= R G)))
                  (not (and (= Q R) (= P S)))))
        (a!24 (or (<= 0 C)
                  (= X 0)
                  a!23
                  (not (and (= S F) (= R C)))
                  (not (and (= Q R) (= P S)))))
        (a!25 (or (= X 0)
                  a!23
                  (not (and (= S F) (= R C)))
                  (not (and (= Q R) (= P S)))))
        (a!26 (or (= Y 0)
                  (= X 0)
                  a!23
                  (not (and (= S F) (= R C)))
                  (not (and (= Q R) (= P S))))))
  (let ((a!15 (or (= Y 0) (and (or (= Y 0) (and a!13 a!14)) a!13)))
        (a!27 (and a!24 (or (not (<= 0 C)) (= V 0) (and a!25 a!26)))))
  (let ((a!16 (or (= W 0) (and a!15 (or (= W 0) (and a!10 a!5)))))
        (a!29 (and (or a!22 a!27)
                   (or (not (= D 259))
                       (not (Proc14 F C1 B1 A1 Z N F1 0 0 0 0 B))
                       a!28
                       a!27))))
  (let ((a!17 (or (= W 0) (and (or (= V 0) (and a!10 a!5)) a!16))))
  (let ((a!18 (or (= W 0) (and a!5 (or (= W 0) (and a!5 a!17))))))
  (let ((a!19 (or (= W 0) (and (or (= V 0) (and a!10 a!5)) a!18))))
  (let ((a!20 (or (= W 0) (and a!5 (or (= W 0) (and a!9 a!19))))))
  (let ((a!30 (and a!20
                   (or (not (Proc13 D1 C1 B1 A1 Z N F1 0 0 F))
                       (not (Proc11 F C1 B1 A1 Z N X))
                       (not (Proc12 F C1 B1 A1 Z N X 116 F1 1 1 1))
                       (= V 0)
                       a!21
                       a!29))))
  (let ((a!31 (and a!3 (or (not (<= 0 T)) (= W 0) a!30))))
  (let ((a!32 (not (or (not N)
                       (not (= F1 E1))
                       (not a!1)
                       (not (Proc2 D1 C1 B1 A1 Z N))
                       (= Y 0)
                       (not (Proc3 D1 C1 B1 A1 Z N X W))
                       a!2
                       a!31))))
    (=> a!32 (Proc15 E1 C1 B1 A1 Z N Y X Q P)))))))))))))))
(assert (forall ((A Int)
         (B Int)
         (C Int)
         (D Int)
         (E Int)
         (F Int)
         (G Int)
         (H Int)
         (I Int)
         (J Int)
         (K Int)
         (L Int)
         (M Int)
         (N Bool)
         (O Int))
  (let ((a!1 (not (and (not (= M 0)) (= L (+ 20 M)) (Proc4 K J I H G N L F E))))
        (a!2 (not (and (not (= M 0)) (Proc17 K J I H G N B F A)))))
  (let ((a!3 (and (or (<= 0 E)
                      (= F 0)
                      (not (Proc16 K J I H G N F))
                      (not (Proc5 K J I H G N F 0))
                      (not (= D E))
                      (not (= C D)))
                  (or (not (<= 0 E))
                      (not (Proc16 K J I H G N F))
                      (not (Proc6 K J I H G N F))
                      (= M 0)
                      a!2
                      (not (= D A))
                      (not (= C D))))))
    (=> (not (or (not N) (= O 0) a!1 a!3)) (Proc18 K J I H G N O F C))))))
(assert (forall ((A Int)
         (B Int)
         (C Int)
         (D Int)
         (E Int)
         (F Int)
         (G Int)
         (H Int)
         (I Int)
         (J Int)
         (K Int)
         (N Bool))
  (let ((a!1 (or (not (= J (- 1073741802))) (not (= I J))))
        (a!2 (or (not (Proc19 H G F E D N C 0 0 B))
                 (not (= J (- 1073741802)))
                 (not (= I J)))))
    (=> (not (or (not N) (= K 0) (and a!1 a!2))) (Proc20 H G F E D N A K C I)))))
(assert (forall ((A Int) (B Int) (C Int) (D Int) (E Int) (F Int) (N Bool))
  (=> N (Proc10 F E D C B N A))))
(assert (forall ((A Int) (B Int) (C Int) (D Int) (E Int) (F Int) (N Bool))
  (=> N (Proc9 F E D C B N A))))
(assert (forall ((A Int)
         (B Int)
         (C Int)
         (D Int)
         (E Int)
         (F Int)
         (G Int)
         (H Int)
         (N Bool))
  (let ((a!1 (not (or (not N) (= H 0) (not (= G 259))))))
    (=> a!1 (Proc21 F E D C B N A H G)))))
(assert (forall ((A Int)
         (B Int)
         (C Int)
         (D Int)
         (E Int)
         (F Int)
         (G Int)
         (H Int)
         (I Int)
         (J Int)
         (K Int)
         (N Bool))
  (let ((a!1 (and (not (<= I (+ 1 K))) (not (<= I J)))))
  (let ((a!2 (not (or (not N) (not (= K J)) (not a!1) (not (= H I))))))
    (=> a!2 (Proc13 J G F E D N C B A H))))))
(assert (forall ((A Int)
         (B Int)
         (C Int)
         (D Int)
         (E Int)
         (F Int)
         (G Int)
         (H Int)
         (I Int)
         (J Int)
         (N Bool))
  (let ((a!1 (not (or (not N) (not (= J I))))))
    (=> a!1 (Proc19 H G F E D N C B A J)))))
(assert (forall ((A Int)
         (B Int)
         (C Int)
         (D Int)
         (E Int)
         (F Int)
         (G Int)
         (H Int)
         (I Int)
         (J Int)
         (K Int)
         (L Int)
         (M Int)
         (N Bool))
  (let ((a!1 (not (and (= M (- 1073741823)) (= L M)))))
  (let ((a!2 (and (or a!1 (not (= K L))) (or (not (= L 0)) (not (= K L))))))
    (=> (not (or (not N) a!2)) (Proc14 J I H G F N E D C B A K))))))
(assert (forall ((A Int)
         (B Int)
         (C Int)
         (D Int)
         (E Int)
         (F Int)
         (G Int)
         (H Int)
         (N Bool))
  (let ((a!1 (not (or (not N) (= H 0) (not (= G 259))))))
    (=> a!1 (Proc17 F E D C B N A H G)))))
(assert (forall ((A Int) (B Int) (C Int) (D Int) (E Int) (F Int) (N Bool))
  (=> N (Proc16 F E D C B N A))))
(assert (forall ((A Int)
         (B Int)
         (C Int)
         (D Int)
         (E Int)
         (F Int)
         (G Int)
         (H Int)
         (I Int)
         (J Int)
         (K Int)
         (L Int)
         (N Bool))
  (let ((a!1 (and (not (<= J (+ 1 L))) (not (<= J K)))))
  (let ((a!2 (or (not N)
                 (not (= L K))
                 (not a!1)
                 (not (Proc22 J I H G F N L E))
                 (not (and (= D J) (= C E))))))
    (=> (not a!2) (Proc23 K I H G F N B A D C))))))
(assert (forall ((A Int) (B Int) (C Int) (D Int) (E Int) (F Int) (G Int) (N Bool))
  (let ((a!1 (not (or (not N) (not (= G 1))))))
    (=> a!1 (Proc22 F E D C B N A G)))))
(assert (forall ((A Int) (B Int) (C Int) (D Int) (E Int) (F Int) (N Bool))
  (=> false (Proc24 F E D C B N A))))
(assert (forall ((A Int) (B Int) (C Int) (D Int) (E Int) (F Int) (N Bool))
  (=> N (Proc25 F E D C B N A))))
(assert (forall ((A Int)
         (B Int)
         (C Int)
         (D Int)
         (E Int)
         (F Int)
         (G Int)
         (H Int)
         (I Int)
         (J Int)
         (K Int)
         (L Int)
         (M Int)
         (N Bool)
         (O Int)
         (P Int))
  (let ((a!1 (and (not (<= L (+ 1 O))) (not (<= L M))))
        (a!3 (or (not (= A 1))
                 (not (and (= G A) (= F B)))
                 (not (and (= E F) (= D G)))))
        (a!4 (or (= A 1)
                 (not (and (= G A) (= F B)))
                 (not (and (= E F) (= D G))))))
  (let ((a!2 (or (= P 259)
                 (not (= O M))
                 (not a!1)
                 (not (Proc24 L K J I H N O))
                 (not (and (= G H) (= F L)))
                 (not (and (= E F) (= D G)))))
        (a!5 (or (not (= K 0))
                 (not (= O M))
                 (not a!1)
                 (not (Proc24 L K J I H N O))
                 (not (and (= G H) (= F L)))
                 (not (and (= E F) (= D G))))))
  (let ((a!6 (and (or (= K 0) (not (Proc23 M K J I H N C P B A)) (and a!3 a!4))
                  a!5)))
  (let ((a!7 (and a!2 (or (not (= P 259)) a!6))))
    (=> (not (or (not N) a!7)) (Proc26 M K J I H N C P E D))))))))
(assert (forall ((A Int) (B Int) (C Int) (D Int) (E Int) (N Bool))
  (=> N (Proc27 E D C B A N))))
(assert (forall ((A Int) (B Int) (C Int) (D Int) (E Int) (F Int) (N Bool))
  (let ((a!1 (not (or (not N) (not (= F E))))))
    (=> a!1 (Proc28 D C B E A N F)))))
(assert (forall ((A Int) (B Int) (C Int) (D Int) (E Int) (F Int) (G Int) (N Bool))
  (let ((a!1 (or (not N) (not (and (= G 0) (= F 0))))))
    (=> (not a!1) (Proc29 E D C B A N G F)))))
(assert (forall ((A Int)
         (B Int)
         (C Int)
         (D Int)
         (E Int)
         (F Int)
         (G Int)
         (H Int)
         (I Int)
         (J Int)
         (K Int)
         (L Int)
         (M Int)
         (N Bool)
         (O Int)
         (P Int)
         (Q Int)
         (R Int)
         (S Int)
         (T Int)
         (U Int)
         (V Int)
         (G1 Bool)
         (H1 Bool)
         (I1 Bool))
  (let ((a!1 (not (and (not (<= V 0)) (Proc30 V U T S R I1 Q P))))
        (a!2 (not (and (= G I)
                       (= F O)
                       (= E J)
                       (= D L)
                       (= G1 H1)
                       (= C K)
                       (= B P)))))
  (let ((a!3 (or (= J 0) (not (and (= I H) (not H1))) a!2))
        (a!4 (or (not (and (= J 0) (= N I1))) (not (and (= I A) (= H1 N))) a!2)))
  (let ((a!5 (and (or (= J 1) (and a!3 a!4)) (or (not (= J 1)) (and a!3 a!4)))))
  (let ((a!6 (not (or (not I1)
                      a!1
                      (not (Proc29 Q U T P R I1 O M))
                      (not (Proc28 Q O T P M I1 L))
                      (not (Proc27 Q O L P M I1))
                      (= L 0)
                      (not (Proc31 Q O L P M I1 K J))
                      a!5))))
    (=> a!6 (Proc32 V U T S R I1 G F E D G1 C B))))))))
(assert (forall ((A Int) (B Int) (C Int) (D Int) (E Int) (F Int) (N Bool))
  (let ((a!1 (not (or (not N) (not (= F 1))))))
    (=> a!1 (Proc33 E D C B A N F)))))
(assert (forall ((A Int) (B Int) (C Int) (D Int) (E Int) (F Int) (N Bool))
  (let ((a!1 (not (or (not N) (not (= F 0))))))
    (=> a!1 (Proc34 E D C B A N F)))))
(assert (forall ((A Int) (B Int) (C Int) (D Int) (E Int) (F Int) (N Bool))
  (let ((a!1 (not (or (not N) (not (= F 1))))))
    (=> a!1 (Proc35 E D C B A N F)))))
(assert (forall ((A Int) (B Int) (C Int) (D Int) (E Int) (F Int) (N Bool))
  (let ((a!1 (not (or (not N) (not (= F 0))))))
    (=> a!1 (Proc36 E D C B A N F)))))
(assert (forall ((A Int) (B Int) (C Int) (D Int) (E Int) (F Int) (N Bool))
  (let ((a!1 (not (or (not N) (not (= F 1))))))
    (=> a!1 (Proc37 E D C B A N F)))))
(assert (forall ((A Int) (B Int) (C Int) (D Int) (E Int) (F Int) (N Bool))
  (let ((a!1 (not (or (not N) (not (= F 0))))))
    (=> a!1 (Proc38 E D C B A N F)))))
(assert (forall ((A Int) (B Int) (C Int) (D Int) (E Int) (F Int) (N Bool))
  (let ((a!1 (not (or (not N) (not (= F 1))))))
    (=> a!1 (Proc39 E D C B A N F)))))
(assert (forall ((A Int) (B Int) (C Int) (D Int) (E Int) (F Int) (N Bool))
  (let ((a!1 (not (or (not N) (not (= F 1))))))
    (=> a!1 (Proc40 E D C B A N F)))))
(assert (forall ((A Int) (B Int) (C Int) (D Int) (E Int) (F Int) (N Bool))
  (let ((a!1 (not (or (not N) (not (= F 0))))))
    (=> a!1 (Proc41 E D C B A N F)))))
(assert (forall ((A Int) (B Int) (C Int) (D Int) (E Int) (F Int) (N Bool))
  (let ((a!1 (not (or (not N) (not (= F 0))))))
    (=> a!1 (Proc42 E D C B A N F)))))
(assert (forall ((A Int) (B Int) (C Int) (D Int) (E Int) (F Int) (N Bool))
  (let ((a!1 (not (or (not N) (not (= F 0))))))
    (=> a!1 (Proc43 E D C B A N F)))))
(assert (forall ((A Int) (B Int) (C Int) (D Int) (E Int) (F Int) (G Int) (N Bool))
  (let ((a!1 (or (not N) (not (= G (- 1073741823))) (not (= F G)))))
    (=> (not a!1) (Proc44 E D C B A N F)))))
(assert (forall ((A Int)
         (B Int)
         (C Int)
         (D Int)
         (E Int)
         (F Int)
         (G Int)
         (H Int)
         (I Int)
         (J Int)
         (K Int)
         (N Bool))
  (let ((a!1 (not (and (= K (- 1073741738)) (= J K))))
        (a!2 (not (and (= H (- 1073741823)) (= J H)))))
  (let ((a!3 (and (or a!1 (not (= I J)))
                  (or (not (= J 0)) (not (= I J)))
                  (or a!2 (not (= I J))))))
    (=> (not (or (not N) a!3)) (Proc4 G F E D C N B A I))))))
(assert (forall ((A Int)
         (B Int)
         (C Int)
         (D Int)
         (E Int)
         (F Int)
         (G Int)
         (H Int)
         (I Int)
         (N Bool))
  (let ((a!1 (not (or (not N) (not (Proc21 I H G F E N D C B)) (not (= A B))))))
    (=> a!1 (Proc7 I H G F E N D C A)))))
(assert (forall ((A Int) (B Int) (C Int) (D Int) (E Int) (F Int) (G Int) (N Bool))
  (=> N (Proc5 G F E D C N B A))))
(assert (forall ((A Int) (B Int) (C Int) (D Int) (E Int) (F Int) (N Bool))
  (let ((a!1 (not (or (not N) (not (= F 1))))))
    (=> a!1 (Proc45 E D C B A N F)))))
(assert (forall ((A Int) (B Int) (C Int) (D Int) (E Int) (F Int) (N Bool))
  (=> N (Proc11 F E D C B N A))))
(assert (forall ((A Int)
         (B Int)
         (C Int)
         (D Int)
         (E Int)
         (F Int)
         (G Int)
         (H Int)
         (N Bool))
  (let ((a!1 (not (or (not N) (= H 0) (not (= G F))))))
    (=> a!1 (Proc3 E D C B A N H G)))))
(assert (forall ((A Int)
         (B Int)
         (C Int)
         (D Int)
         (E Int)
         (F Int)
         (G Int)
         (H Int)
         (I Int)
         (J Int)
         (K Int)
         (N Bool))
  (let ((a!1 (and (or (not (= I H)) (not (= G I)))
                  (or (not (= I F)) (not (= G I))))))
  (let ((a!2 (and (or (= K J) a!1)
                  (or (not (= K J)) (not (= I E)) (not (= G I))))))
    (=> (not (or (not N) a!2)) (Proc46 D C B J A N K G))))))
(assert (forall ((A Int)
         (B Int)
         (C Int)
         (D Int)
         (E Int)
         (F Int)
         (G Int)
         (H Int)
         (I Int)
         (N Bool))
  (let ((a!1 (and (not (<= G (+ 1 I))) (not (<= G H)))))
  (let ((a!2 (not (or (not N)
                      (not (= I H))
                      (not a!1)
                      (not (Proc25 G F E D C N I))
                      (not (= B G))))))
    (=> a!2 (Proc0 H F E D C N A B))))))
(assert (forall ((A Int) (B Int) (C Int) (D Int) (E Int) (F Int) (G Int) (N Bool))
  (=> N (Proc8 G F E D C N B A))))
(assert (forall ((A Int)
         (B Int)
         (C Int)
         (D Int)
         (E Int)
         (F Int)
         (G Int)
         (H Int)
         (I Int)
         (J Int)
         (K Int)
         (L Int)
         (N Bool))
  (let ((a!1 (not (or (not N) (not (Proc46 L K J I H N G F)) (= F 0)))))
    (=> a!1 (Proc12 L K J I H N G E D C B A)))))
(assert (forall ((A Int) (B Int) (C Int) (D Int) (E Int) (F Int) (N Bool))
  (=> N (Proc6 F E D C B N A))))
(assert (forall ((A Int)
         (B Int)
         (C Int)
         (D Int)
         (E Int)
         (F Int)
         (G Int)
         (H Int)
         (I Int)
         (J Int)
         (K Int)
         (L Int)
         (M Int)
         (N Bool)
         (O Int)
         (P Int)
         (Q Int)
         (R Int)
         (S Int)
         (T Int)
         (U Int)
         (V Int)
         (W Int)
         (X Int)
         (Y Int)
         (Z Int)
         (A1 Int)
         (B1 Int)
         (C1 Int)
         (D1 Int)
         (E1 Int)
         (F1 Int)
         (J1 Int)
         (K1 Int)
         (L1 Int)
         (M1 Int)
         (N1 Int)
         (O1 Int))
  (let ((a!1 (not (Proc49 D1 M1 L1 K1 J1 N C1 O1)))
        (a!2 (and (not (<= A1 (+ 1 B1))) (not (<= A1 D1))))
        (a!3 (not (Proc26 A1 M1 L1 K1 J1 N B1 C1 Z Y)))
        (a!4 (not (and (= X C1) (= W Z) (= V Y))))
        (a!22 (not (Proc15 N1 M1 L1 K1 J1 N H O1 D C))))
  (let ((a!5 (and (or (not (= Y 1)) a!4) (or (= Y 1) a!4))))
  (let ((a!6 (or (= F1 0)
                 (not (Proc44 N1 M1 L1 K1 J1 N E1))
                 (not (and (= D1 N1) (= C1 E1)))
                 a!1
                 (= O1 0)
                 (not (= B1 D1))
                 (not a!2)
                 a!3
                 a!5))
        (a!7 (or (= F1 0)
                 (not (Proc44 N1 M1 L1 K1 J1 N U))
                 (not (and (= D1 N1) (= C1 U)))
                 a!1
                 (= O1 0)
                 (not (= B1 D1))
                 (not a!2)
                 a!3
                 a!5))
        (a!8 (or (= F1 0)
                 (not (Proc44 N1 M1 L1 K1 J1 N T))
                 (not (and (= D1 N1) (= C1 T)))
                 a!1
                 (= O1 0)
                 (not (= B1 D1))
                 (not a!2)
                 a!3
                 a!5))
        (a!9 (or (= F1 0)
                 (not (Proc44 N1 M1 L1 K1 J1 N S))
                 (not (and (= D1 N1) (= C1 S)))
                 a!1
                 (= O1 0)
                 (not (= B1 D1))
                 (not a!2)
                 a!3
                 a!5))
        (a!10 (or (= F1 0)
                  (not (Proc44 N1 M1 L1 K1 J1 N R))
                  (not (and (= D1 N1) (= C1 R)))
                  a!1
                  (= O1 0)
                  (not (= B1 D1))
                  (not a!2)
                  a!3
                  a!5))
        (a!11 (or (= F1 0)
                  (not (Proc44 N1 M1 L1 K1 J1 N Q))
                  (not (and (= D1 N1) (= C1 Q)))
                  a!1
                  (= O1 0)
                  (not (= B1 D1))
                  (not a!2)
                  a!3
                  a!5))
        (a!12 (or (= F1 0)
                  (not (Proc44 N1 M1 L1 K1 J1 N P))
                  (not (and (= D1 N1) (= C1 P)))
                  a!1
                  (= O1 0)
                  (not (= B1 D1))
                  (not a!2)
                  a!3
                  a!5))
        (a!13 (or (not (Proc44 N1 M1 L1 K1 J1 N O))
                  (not (and (= D1 N1) (= C1 O)))
                  a!1
                  (= O1 0)
                  (not (= B1 D1))
                  (not a!2)
                  a!3
                  a!5))
        (a!14 (or (= F1 0)
                  (not (Proc44 N1 M1 L1 K1 J1 N M))
                  (not (and (= D1 N1) (= C1 M)))
                  a!1
                  (= O1 0)
                  (not (= B1 D1))
                  (not a!2)
                  a!3
                  a!5))
        (a!15 (or (= F1 0)
                  (not (Proc44 N1 M1 L1 K1 J1 N L))
                  (not (and (= D1 N1) (= C1 L)))
                  a!1
                  (= O1 0)
                  (not (= B1 D1))
                  (not a!2)
                  a!3
                  a!5))
        (a!16 (or (= F1 0)
                  (not (Proc44 N1 M1 L1 K1 J1 N K))
                  (not (and (= D1 N1) (= C1 K)))
                  a!1
                  (= O1 0)
                  (not (= B1 D1))
                  (not a!2)
                  a!3
                  a!5))
        (a!17 (or (not (Proc44 N1 M1 L1 K1 J1 N J))
                  (not (and (= D1 N1) (= C1 J)))
                  a!1
                  (= O1 0)
                  (not (= B1 D1))
                  (not a!2)
                  a!3
                  a!5))
        (a!18 (or (= F1 0)
                  (not (Proc44 N1 M1 L1 K1 J1 N I))
                  (not (and (= D1 N1) (= C1 I)))
                  a!1
                  (= O1 0)
                  (not (= B1 D1))
                  (not a!2)
                  a!3
                  a!5))
        (a!19 (or (= F1 0)
                  (not (Proc50 N1 M1 L1 K1 J1 N O1))
                  (not (Proc18 N1 M1 L1 K1 J1 N H O1 G))
                  (not (and (= D1 N1) (= C1 G)))
                  a!1
                  (= O1 0)
                  (not (= B1 D1))
                  (not a!2)
                  a!3
                  a!5))
        (a!20 (or (= F1 0)
                  (not (Proc44 N1 M1 L1 K1 J1 N F))
                  (not (and (= D1 N1) (= C1 F)))
                  a!1
                  (= O1 0)
                  (not (= B1 D1))
                  (not a!2)
                  a!3
                  a!5))
        (a!21 (or (not (Proc44 N1 M1 L1 K1 J1 N E))
                  (not (and (= D1 N1) (= C1 E)))
                  a!1
                  (= O1 0)
                  (not (= B1 D1))
                  (not a!2)
                  a!3
                  a!5))
        (a!23 (or (= F1 0)
                  a!22
                  (not (and (= D1 C) (= C1 D)))
                  a!1
                  (= O1 0)
                  (not (= B1 D1))
                  (not a!2)
                  a!3
                  a!5))
        (a!24 (or (not (= B 1))
                  (= B 0)
                  (= F1 0)
                  a!22
                  (not (and (= D1 C) (= C1 D)))
                  a!1
                  (= O1 0)
                  (not (= B1 D1))
                  (not a!2)
                  a!3
                  a!5)))
  (let ((a!25 (and (or (= F1 0) (and a!23 a!24))
                   (or (not (= A 1)) (= A 0) (= F1 0) (and a!23 a!24)))))
  (let ((a!26 (or (not N)
                  (= O1 0)
                  (not (Proc47 N1 M1 L1 K1 J1 N O1))
                  (= F1 0)
                  (not (Proc48 N1 M1 L1 K1 J1 N))
                  (and a!6
                       a!7
                       a!8
                       a!9
                       a!10
                       a!11
                       a!12
                       a!13
                       a!14
                       a!15
                       a!16
                       a!17
                       a!18
                       a!19
                       a!20
                       a!21
                       (or (= F1 0) a!25)))))
    (=> (not a!26) (Proc51 N1 M1 L1 K1 J1 N H O1 X W V)))))))))
(assert (forall ((A Int)
         (B Int)
         (C Int)
         (D Int)
         (E Int)
         (F Int)
         (G Int)
         (H Int)
         (N Bool))
  (let ((a!1 (not (or (not N)
                      (not (Proc52 H G F E D N))
                      (not (Proc44 H G F E D N C))
                      (not (Proc53 H G F E D N))))))
    (=> a!1 (Proc54 H G F E D N B A)))))
(assert (forall ((A Int) (B Int) (C Int) (D Int) (E Int) (F Int) (G Int) (N Bool))
  (=> (not (or (not N) (= G 0) (= F 0))) (Proc50 E D C B A N G))))
(assert (forall ((A Int) (B Int) (C Int) (D Int) (E Int) (F Int) (N Bool))
  (=> (not (or (not N) (= F 0))) (Proc47 E D C B A N F))))
(assert (forall ((A Int) (B Int) (C Int) (D Int) (E Int) (N Bool))
  (=> N (Proc2 E D C B A N))))
(assert (forall ((A Int)
         (B Int)
         (C Int)
         (D Int)
         (E Int)
         (F Int)
         (G Int)
         (H Int)
         (I Int)
         (J Int)
         (K Int)
         (L Int)
         (M Int)
         (N Bool)
         (O Int)
         (P Int)
         (Q Int)
         (R Int)
         (S Int)
         (T Int)
         (U Int)
         (V Int)
         (W Int)
         (X Int)
         (Y Int)
         (Z Int)
         (A1 Int)
         (B1 Int)
         (C1 Int)
         (D1 Int)
         (E1 Int)
         (F1 Int)
         (J1 Int)
         (K1 Int))
  (let ((a!1 (or (not (= M 1))
                 (not (and (= L O) (= K M)))
                 (not (and (= J L) (= I K)))))
        (a!2 (or (= M 1)
                 (not (and (= L O) (= K M)))
                 (not (and (= J L) (= I K)))))
        (a!3 (or (not (= C1 0))
                 (not (and (= L K1) (= K D1)))
                 (not (and (= J L) (= I K)))))
        (a!4 (or (= B1 0)
                 (not (Proc55 K1 J1 F1 E1 D1 N))
                 (not (Proc54 K1 J1 F1 E1 D1 N H F1))
                 (not (and (= L K1) (= K D1)))
                 (not (and (= J L) (= I K)))))
        (a!5 (or (not (= B1 0))
                 (not (and (= L K1) (= K D1)))
                 (not (and (= J L) (= I K)))))
        (a!6 (or (not (and (= L K1) (= K D1))) (not (and (= J L) (= I K)))))
        (a!7 (or (not (Proc1 K1 J1 F1 E1 D1 N G F1 F E D))
                 (not (and (= L D) (= K D1)))
                 (not (and (= J L) (= I K)))))
        (a!8 (or (not (Proc20 K1 J1 F1 E1 D1 N C F1 B A))
                 (not (and (= L K1) (= K D1)))
                 (not (and (= J L) (= I K))))))
  (let ((a!9 (and (or (= C1 0)
                      (not (Proc55 K1 J1 F1 E1 D1 N))
                      (not (Proc51 K1 J1 F1 E1 D1 N Q F1 P O M))
                      (and a!1 a!2))
                  a!3
                  a!4
                  a!5
                  a!6
                  a!7
                  a!8)))
  (let ((a!10 (not (or (not N)
                       (not (Proc35 K1 J1 F1 E1 D1 N C1))
                       (not (Proc42 K1 J1 F1 E1 D1 N B1))
                       (not (Proc36 K1 J1 F1 E1 D1 N A1))
                       (not (Proc41 K1 J1 F1 E1 D1 N Z))
                       (not (Proc34 K1 J1 F1 E1 D1 N Y))
                       (not (Proc38 K1 J1 F1 E1 D1 N X))
                       (not (Proc45 K1 J1 F1 E1 D1 N W))
                       (not (Proc43 K1 J1 F1 E1 D1 N V))
                       (not (Proc33 K1 J1 F1 E1 D1 N U))
                       (not (Proc39 K1 J1 F1 E1 D1 N T))
                       (not (Proc40 K1 J1 F1 E1 D1 N S))
                       (not (Proc37 K1 J1 F1 E1 D1 N R))
                       a!9))))
    (=> a!10 (Proc31 K1 J1 F1 E1 D1 N J I)))))))
(assert (forall ((A Int) (B Int) (C Int) (D Int) (E Int) (N Bool))
  (=> N (Proc48 E D C B A N))))
(assert (forall ((A Int) (B Int) (C Int) (D Int) (E Int) (F Int) (G Int) (N Bool))
  (=> N (Proc49 G F E D C N B A))))
(assert (forall ((A Int) (B Int) (C Int) (D Int) (E Int) (N Bool))
  (=> N (Proc55 E D C B A N))))
(assert (forall ((A Int) (B Int) (C Int) (D Int) (E Int) (N Bool))
  (=> N (Proc52 E D C B A N))))
(assert (forall ((A Int) (B Int) (C Int) (D Int) (E Int) (N Bool))
  (=> N (Proc53 E D C B A N))))
(assert (forall ((A Int)
         (B Int)
         (C Int)
         (D Int)
         (E Int)
         (F Int)
         (G Int)
         (H Int)
         (I Int)
         (J Int)
         (K Int)
         (L Int)
         (M Int)
         (N Bool)
         (O Int)
         (P Int)
         (Q Int)
         (R Int)
         (S Int)
         (T Int)
         (U Int)
         (V Int)
         (W Int)
         (X Int)
         (Y Int)
         (Z Int)
         (A1 Int)
         (B1 Int)
         (C1 Int)
         (D1 Int)
         (E1 Int)
         (F1 Int)
         (J1 Int)
         (K1 Int)
         (L1 Int)
         (M1 Int)
         (N1 Int)
         (O1 Int)
         (P1 Int)
         (Q1 Int)
         (R1 Int)
         (S1 Int)
         (T1 Int)
         (U1 Int)
         (V1 Int)
         (W1 Int)
         (X1 Int)
         (Y1 Int)
         (Z1 Int)
         (A2 Int)
         (B2 Int)
         (C2 Int)
         (D2 Int)
         (E2 Int)
         (F2 Int)
         (G2 Int)
         (H2 Int)
         (I2 Int)
         (J2 Int)
         (K2 Int)
         (L2 Int)
         (M2 Int))
  (let ((a!1 (and (not (<= K2 (+ 16 M2)))
                  (not (<= K2 L2))
                  (= J2 K2)
                  (not (<= I2 (+ 240 J2)))
                  (not (<= I2 K2))
                  (= H2 I2)
                  (not (<= G2 (+ 4 H2)))
                  (not (<= G2 I2))
                  (= F2 G2)
                  (not (<= E2 (+ 332 F2)))
                  (not (<= E2 G2))
                  (= D2 E2)
                  (not (<= C2 (+ 4 D2)))
                  (not (<= C2 E2))
                  (= B2 C2)
                  (not (<= A2 (+ 536 B2)))))
        (a!2 (and (not (<= A2 C2))
                  (= Z1 A2)
                  (not (<= Y1 (+ 240 Z1)))
                  (not (<= Y1 A2))
                  (= X1 Y1)
                  (not (<= W1 (+ 240 X1)))
                  (not (<= W1 Y1))
                  (= V1 W1)
                  (not (<= U1 (+ 536 V1)))
                  (not (<= U1 W1))
                  (= T1 U1)
                  (not (<= S1 (+ 240 T1)))
                  (not (<= S1 U1))
                  (= R1 S1)
                  (not (<= Q1 (+ 4 R1)))
                  (not (<= Q1 S1))
                  (= P1 Q1)
                  (not (<= O1 (+ 536 P1)))
                  (not (<= O1 Q1))
                  (= N1 O1)
                  (not (<= M1 (+ 332 N1)))
                  (not (<= M1 O1))
                  (= L1 M1)
                  (not (<= K1 (+ 240 L1)))
                  (not (<= K1 M1))
                  (= J1 K1)
                  (not (<= F1 (+ 240 J1)))
                  (not (<= F1 K1))
                  (= E1 F1)
                  (not (<= D1 (+ 332 E1)))
                  (not (<= D1 F1))
                  (= C1 D1)
                  (not (<= B1 (+ 4 C1)))
                  (not (<= B1 D1))
                  (= A1 B1)
                  (not (<= Z (+ 536 A1)))
                  (not (<= Z B1))
                  (= Y Z)
                  (not (<= X (+ 240 Y)))
                  (not (<= X Z))
                  (= W X)
                  (not (<= V (+ 240 W)))
                  (not (<= V X))
                  (= U V)
                  (not (<= T (+ 240 U)))
                  (not (<= T V))
                  (= S T)
                  (not (<= R (+ 240 S)))
                  (not (<= R T))
                  (= Q R)
                  (not (<= P (+ 240 Q)))
                  (not (<= P R))
                  (= O P)
                  (not (<= M (+ 40 O)))
                  (not (<= M P))
                  (= L M)
                  (not (<= K (+ 332 L)))
                  (not (<= K M))
                  (= J K)
                  (not (<= I (+ 4 J)))
                  (not (<= I K))
                  (= H I)
                  (not (<= G (+ 40 H)))
                  (not (<= G I)))))
  (let ((a!3 (or (not N)
                 (not (= M2 L2))
                 (not a!1)
                 (not a!2)
                 (not (and (= F G) (= E Q))))))
    (=> (not a!3) (Proc30 L2 D C B A N F E))))))
(assert (forall ((A Int)
         (B Int)
         (C Int)
         (D Int)
         (E Int)
         (F Int)
         (G Int)
         (H Int)
         (I Int)
         (J Int)
         (K Int)
         (L Int)
         (M Int)
         (N Bool)
         (O Int)
         (P Int)
         (Q Int)
         (R Int)
         (G1 Bool)
         (H1 Bool))
  (let ((a!1 (or (not H1)
                 (not (and (Proc32 R Q P O M true L K J I G1 H G) (not G1))))))
    (=> (not a!1) (Proc56 R Q P O M H1 F N E D C B A)))))
(assert (let ((a!1 (exists ((V0 Int)
                    (V1 Int)
                    (V2 Int)
                    (V3 Int)
                    (V4 Int)
                    (V5 Bool)
                    (V6 Int)
                    (V7 Bool)
                    (V8 Int)
                    (V9 Int)
                    (V10 Int)
                    (V11 Int)
                    (V12 Int))
             (not (=> (and (Proc56 V0 V1 V2 V3 V4 V5 V6 V7 V8 V9 V10 V11 V12)
                           (not false))
                      false)))))
  (not a!1)))

(check-sat)
